
******************************************************************************
This program contains Ipopt, a library for large-scale nonlinear optimization.
 Ipopt is released as open source code under the Eclipse Public License (EPL).
         For more information visit https://github.com/coin-or/Ipopt
******************************************************************************

This is Ipopt version 3.14.19, running with linear solver MUMPS 5.8.1.

Number of nonzeros in equality constraint Jacobian...:     4389
Number of nonzeros in inequality constraint Jacobian.:        0
Number of nonzeros in Lagrangian Hessian.............:     1050

Total number of variables............................:     1287
                     variables with only lower bounds:        0
                variables with lower and upper bounds:      457
                     variables with only upper bounds:        0
Total number of equality constraints.................:     1274
Total number of inequality constraints...............:        0
        inequality constraints with only lower bounds:        0
   inequality constraints with lower and upper bounds:        0
        inequality constraints with only upper bounds:        0

iter    objective    inf_pr   inf_du lg(mu)  ||d||  lg(rg) alpha_du alpha_pr  ls
   0  9.8490274e+00 9.90e+01 1.93e-04  -1.0 0.00e+00    -  0.00e+00 0.00e+00   0
   1  1.0007826e+01 6.15e+01 2.01e+01  -1.0 9.84e+01    -  4.58e-02 1.00e+00h  1
   2  9.9442240e+00 1.05e+01 7.47e-02  -1.0 2.40e+01    -  9.36e-01 1.00e+00h  1
   3  9.9641728e+00 2.10e+00 1.08e-01  -1.0 6.98e+00    -  5.91e-01 7.01e-01h  1
   4  1.0264890e+01 4.46e+00 3.72e-01  -1.0 3.78e+00    -  9.90e-01 7.26e-01f  1
   5  1.0381490e+01 1.09e+00 2.25e-03  -1.0 1.15e+00    -  1.00e+00 1.00e+00h  1
   6  1.0350435e+01 3.17e-02 1.21e-04  -1.0 2.08e-01    -  1.00e+00 1.00e+00h  1
   7  1.0121099e+01 6.80e-01 7.80e-01  -2.5 2.08e+00    -  5.31e-01 1.00e+00h  1
   8  9.8925455e+00 4.19e+00 2.34e-01  -2.5 3.18e+00    -  6.80e-01 1.00e+00h  1
   9  9.8587621e+00 1.29e+01 3.37e-03  -2.5 2.15e+01    -  1.00e+00 1.00e+00h  1
iter    objective    inf_pr   inf_du lg(mu)  ||d||  lg(rg) alpha_du alpha_pr  ls
  10  9.8560310e+00 5.48e+00 1.10e-04  -2.5 4.68e+01    -  1.00e+00 1.00e+00h  1
  11  9.8559187e+00 7.04e-02 2.48e-07  -2.5 1.24e+01    -  1.00e+00 1.00e+00h  1
  12  9.8559179e+00 6.43e-06 2.34e-11  -2.5 1.53e-01    -  1.00e+00 1.00e+00h  1
  13  9.8529403e+00 2.83e+00 1.69e-03  -3.8 8.09e+00    -  9.86e-01 1.00e+00h  1
  14  9.8520298e+00 1.20e-01 3.90e-03  -3.8 3.41e+00    -  6.25e-01 1.00e+00h  1
  15  9.8513935e+00 5.58e-04 1.10e-04  -3.8 2.87e-01    -  9.73e-01 1.00e+00h  1
  16  9.8487535e+00 2.64e-04 1.19e-03  -5.7 1.20e+00    -  4.33e-01 1.00e+00h  1
  17  9.8479371e+00 1.65e-04 3.61e-05  -5.7 3.98e-01    -  1.00e+00 1.00e+00h  1
  18  9.8479136e+00 1.06e-04 2.75e-07  -5.7 2.68e-02    -  1.00e+00 1.00e+00h  1
  19  9.8479192e+00 3.13e-05 3.59e-08  -5.7 1.48e-02    -  1.00e+00 1.00e+00h  1
iter    objective    inf_pr   inf_du lg(mu)  ||d||  lg(rg) alpha_du alpha_pr  ls
  20  9.8479177e+00 2.56e-07 7.82e-10  -5.7 1.37e-03    -  1.00e+00 1.00e+00h  1
  21  9.8479039e+00 1.23e-05 1.59e-03  -8.6 2.22e-02    -  9.95e-01 4.06e-01h  1
  22  9.8479015e+00 8.83e-05 2.10e-03  -8.6 3.69e-02    -  1.00e+00 6.52e-01h  1
  23  9.8479013e+00 6.06e-05 5.19e-08  -8.6 2.03e-02    -  1.00e+00 1.00e+00h  1
  24  9.8479013e+00 2.42e-06 2.11e-09  -8.6 4.02e-03    -  1.00e+00 1.00e+00h  1
  25  9.8479013e+00 5.64e-08 4.87e-11  -8.6 6.18e-04    -  1.00e+00 1.00e+00h  1
  26  9.8479013e+00 3.30e-11 2.85e-14  -8.6 1.50e-05    -  1.00e+00 1.00e+00h  1

Number of Iterations....: 26

                                   (scaled)                 (unscaled)
Objective...............:   9.8479012750560493e+00    9.8479012750560493e+00
Dual infeasibility......:   2.8499988827257461e-14    2.8499988827257461e-14
Constraint violation....:   3.2992275578187502e-11    3.2992275578187502e-11
Variable bound violation:   0.0000000000000000e+00    0.0000000000000000e+00
Complementarity.........:   2.5060310338245102e-09    2.5060310338245102e-09
Overall NLP error.......:   2.5060310338245102e-09    2.5060310338245102e-09


Number of objective function evaluations             = 27
Number of objective gradient evaluations             = 27
Number of equality constraint evaluations            = 27
Number of inequality constraint evaluations          = 0
Number of equality constraint Jacobian evaluations   = 27
Number of inequality constraint Jacobian evaluations = 0
Number of Lagrangian Hessian evaluations             = 26
Total seconds in IPOPT                               = 0.104

EXIT: Optimal Solution Found.
